n = 18;

R =
[|0,9,9,9,9,9,9,9,9,9,0,0,4,0,0,0,0,0,
 |0,2,2,0,0,0,0,0,1,0,0,0,4,0,0,0,0,0,
 |5,0,0,0,0,6,0,0,0,1,0,0,4,0,0,9,5,1,
 |5,0,0,0,2,6,0,0,0,0,0,0,4,0,0,9,5,0,
 |5,0,0,0,2,6,0,0,0,0,0,0,0,0,0,9,5,2,
 |5,0,0,0,0,6,6,6,6,6,6,6,0,0,0,9,5,2,
 |5,0,0,0,0,6,0,0,1,0,0,0,0,0,0,9,5,0,
 |0,4,8,0,1,6,0,0,0,0,0,0,0,0,0,9,5,0,
 |7,4,8,0,0,0,2,2,0,5,5,5,5,5,0,9,5,0,
 |7,4,8,0,0,0,0,0,7,7,7,7,7,7,7,9,5,3,
 |7,4,8,0,6,6,6,6,6,6,0,0,0,0,0,9,5,3,
 |7,0,8,0,0,0,4,0,0,0,0,0,1,0,0,0,5,3,
 |7,0,8,0,0,1,4,1,0,5,5,5,5,5,0,0,0,0,
 |7,0,8,0,0,0,4,0,0,0,0,0,0,0,0,0,0,0,
 |7,0,8,3,0,0,4,0,0,0,0,2,2,0,0,0,0,0,
 |0,0,0,3,2,0,0,0,0,0,0,2,2,0,0,0,1,0,
 |0,0,0,3,2,9,9,9,9,9,9,9,9,9,0,0,0,0,
 |0,0,0,0,0,0,0,0,7,7,7,7,7,7,7,0,0,0,
 |];

